c ---- [ banner ] ------------------------------------------------------------
c
c Kissat SAT Solver
c 
c Copyright (c) 2021-2024 Armin Biere University of Freiburg
c Copyright (c) 2019-2021 Armin Biere Johannes Kepler University Linz
c 
c Version 4.0.2 unknown
c gcc (Ubuntu 13.3.0-6ubuntu2~24.04) 13.3.0 -W -Wall -O3 -DNDEBUG
c Wed Jun 4 00:50:03 EDT 2025 Linux MPC 5.15.167.4-microsoft-standard-WSL2 x86_64
c
c ---- [ parsing ] -----------------------------------------------------------
c
c opened and reading DIMACS file:
c
c   /mnt/g/Code/sat solver stuff/mutually orthogonal latin squares/input.cnf
c
c parsed 'p cnf 54 549' header
c closing input after reading 7857 bytes (8 KB)
c finished parsing after 0.00 seconds
c
c ---- [ solving ] -----------------------------------------------------------
c
c seconds switched rate     size/glue tier1 binary  remaining
c        MB reductions conflicts size  tier2 irredundant
c         level restarts redundant glue  trail   variables
c
c *  0.00  3 0 0 0  0 0   0   0 0.0 0 0 0 0 0%  61  2  0 0%
c lucky no all-negative clause
c l  0.00  3 0 0 0  0 0   0   0 0.0 0 0 0 0 0%  61  2  0 0%
c 1  0.00  3 0 0 0  0 0   0   0 0.0 0 0 0 0 0%  61  2  0 0%
c
c ---- [ result ] ------------------------------------------------------------
c
s SATISFIABLE
v 1 -2 -3 -4 5 -6 -7 -8 9 -10 11 -12 -13 -14 15 16 -17 -18 -19 -20 21 22 -23
v -24 -25 26 -27 28 -29 -30 -31 32 -33 -34 -35 36 -37 -38 39 40 -41 -42 -43 44
v -45 -46 47 -48 -49 -50 51 52 -53 -54 0
c
c ---- [ profiling ] ---------------------------------------------------------
c
c           0.00   53.80 %  parse
c           0.00    2.26 %  lucky
c           0.00    0.00 %  search
c           0.00    0.00 %  simplify
c =============================================
c           0.00  100.00 %  total
c
c ---- [ statistics ] --------------------------------------------------------
c
c conflicts:                                0                0.00 per second
c decisions:                                0                0.00 per conflict
c propagations:                            54            13333    per second
c switched:                                 0                0    interval
c
c ---- [ glue usage ] --------------------------------------------------------
c
c no clauses used at all
c
c ---- [ resources ] ---------------------------------------------------------
c
c maximum-resident-set-size:         12083200 bytes         12 MB
c process-time:                                              0.00 seconds
c
c ---- [ shutting down ] -----------------------------------------------------
c
c exit 10
